78
120
96	1
94	2
93	2
92	1
91	5
90	2
89	1
87	1
86	3
85	3
84	5
83	3
82	5
81	2
80	2
79	5
78	3
77	1
76	3
74	1
73	1
72	4
71	4
70	5
69	3
68	4
67	2
66	3
65	2
63	3
62	3
61	3
60	4
59	2
58	3
56	3
55	4
54	3
53	4
52	3
51	4
50	3
49	1
48	1
47	4
46	1
45	2
44	1
43	5
42	1
41	3
40	1
39	3
38	1
37	2
35	2
34	3
33	2
32	1
31	2
29	3
28	3
27	4
26	2
25	1
24	4
23	2
22	2
21	2
20	2
19	1
18	2
17	1
16	3
15	5
14	2
13	3
12	1
